results/res_prop_muc/res_Cimatti_mathsat_cores/QF_LIA/int_incompleteness2.smt.smt2.res
unsat
( c0
  c1
  c2
  c3 )
